0
Node Left Objective IInf Best_Integer Best_Bound ItCnt Gap
0 0 193.4138 23 193.4138 16
0+ 0 nan nan 1137.6779 193.4138 nan 83.00%
0+ 0 nan nan 1002.1076 193.4138 nan 80.70%
0+ 0 nan nan 883.4561 193.4138 nan 78.11%
0 2 193.4138 23 883.4561 196.5630 16 77.75%
CPXPARAM_MIP_Cuts_Cliques 0
1
Node Left Objective IInf Best_Integer Best_Bound ItCnt Gap
0 0 383.6264 9 383.6264 14
0+ 0 nan nan 943.6264 383.6264 nan 59.35%
0+ 0 nan nan 557.9158 383.6264 nan 31.24%
0 2 383.6264 9 557.9158 383.6264 14 31.24%
CPXPARAM_MIP_Cuts_Cliques 0
2
Node Left Objective IInf Best_Integer Best_Bound ItCnt Gap
0 0 0.0000 28 0.0000 17
0+ 0 nan nan 2400.0000 0.0000 nan 100.00%
0+ 0 nan nan 400.6211 0.0000 nan 100.00%
0+ 0 nan nan 381.8146 0.0000 nan 100.00%
0+ 0 nan nan 262.1009 0.0000 nan 100.00%
0 2 0.0000 28 262.1009 0.0000 17 100.00%
CPXPARAM_MIP_Cuts_Cliques 0
3
Node Left Objective IInf Best_Integer Best_Bound ItCnt Gap
0 0 94.5810 18 94.5810 16
0+ 0 nan nan 1134.5810 94.5810 nan 91.66%
0+ 0 nan nan 355.1007 94.5810 nan 73.37%
0+ 0 nan nan 337.6451 94.5810 nan 71.99%
0 2 94.5810 18 337.6451 95.1423 16 71.82%
CPXPARAM_MIP_Cuts_Cliques 0
4
Node Left Objective IInf Best_Integer Best_Bound ItCnt Gap
0 0 743.6527 14 743.6527 13
0 2 743.6527 14 743.6527 13 0 0
CPXPARAM_MIP_Cuts_Cliques 0
5
Node Left Objective IInf Best_Integer Best_Bound ItCnt Gap
0 0 824.6004 7 824.6004 14
0+ 0 nan nan 1274.6004 824.6004 nan 35.31%
0+ 0 nan nan 1016.8639 824.6004 nan 18.91%
0+ 0 nan nan 957.9063 824.6004 nan 13.92%
0 2 824.6004 7 957.9063 824.6004 14 13.92%
CPXPARAM_MIP_Cuts_Cliques 0
6
Node Left Objective IInf Best_Integer Best_Bound ItCnt Gap
0 0 201.0936 27 201.0936 15
0+ 0 nan nan 981.0553 201.0936 nan 79.50%
0+ 0 nan nan 846.6940 201.0936 nan 76.25%
0+ 0 nan nan 843.8163 201.0936 nan 76.17%
0 2 201.0936 27 843.8163 206.1129 15 75.57%
CPXPARAM_MIP_Cuts_Cliques 0
7
Node Left Objective IInf Best_Integer Best_Bound ItCnt Gap
0 0 171.8712 19 171.8712 16
0+ 0 nan nan 1361.8712 171.8712 nan 87.38%
0+ 0 nan nan 584.9235 171.8712 nan 70.62%
0+ 0 nan nan 554.2802 171.8712 nan 68.99%
0+ 0 nan nan 428.2704 171.8712 nan 59.87%
0 2 171.8712 19 428.2704 193.6140 16 54.79%
CPXPARAM_MIP_Cuts_Cliques 0
8
Node Left Objective IInf Best_Integer Best_Bound ItCnt Gap
0 0 420.0936 22 420.0936 16
0+ 0 nan nan 1553.6356 420.0936 nan 72.96%
0+ 0 nan nan 1479.9340 420.0936 nan 71.61%
0+ 0 nan nan 1198.2635 420.0936 nan 64.94%
0+ 0 nan nan 1155.7178 420.0936 nan 63.65%
0 2 420.0936 22 1155.7178 422.6520 16 63.43%
CPXPARAM_MIP_Cuts_Cliques 0
9
Node Left Objective IInf Best_Integer Best_Bound ItCnt Gap
0 0 580.8795 8 580.8795 15
0+ 0 nan nan 1300.8795 580.8795 nan 55.35%
0+ 0 nan nan 772.7795 580.8795 nan 24.83%
0 2 580.8795 8 772.7795 580.8795 15 24.83%
CPXPARAM_MIP_Cuts_Cliques 0
10
Node Left Objective IInf Best_Integer Best_Bound ItCnt Gap
0 0 0.1662 36 0.1662 17
0+ 0 nan nan 492.0262 0.1662 nan 99.97%
0+ 0 nan nan 406.1514 0.1662 nan 99.96%
0 2 0.1662 36 406.1514 0.1695 17 99.96%
CPXPARAM_MIP_Cuts_Cliques 0
11
Node Left Objective IInf Best_Integer Best_Bound ItCnt Gap
0 0 3.1984 26 3.1984 19
0+ 0 nan nan 2083.1984 3.1984 nan 99.85%
0+ 0 nan nan 309.7232 3.1984 nan 98.97%
0+ 0 nan nan 231.1636 3.1984 nan 98.62%
0 2 3.1984 26 231.1636 3.3341 19 98.56%
CPXPARAM_MIP_Cuts_Cliques 0
12
Node Left Objective IInf Best_Integer Best_Bound ItCnt Gap
0 0 269.7984 23 269.7984 15
0+ 0 nan nan 1086.0851 269.7984 nan 75.16%
0+ 0 nan nan 1010.9191 269.7984 nan 73.31%
0+ 0 nan nan 852.2013 269.7984 nan 68.34%
0 2 269.7984 23 852.2013 274.3325 15 67.81%
CPXPARAM_MIP_Cuts_Cliques 0
13
Node Left Objective IInf Best_Integer Best_Bound ItCnt Gap
0 0 493.4927 9 493.4927 15
0+ 0 nan nan 1173.4927 493.4927 nan 57.95%
0+ 0 nan nan 664.4267 493.4927 nan 25.73%
0+ 0 nan nan 656.6899 493.4927 nan 24.85%
0 2 493.4927 9 656.6899 493.4927 15 24.85%
CPXPARAM_MIP_Cuts_Cliques 0
14
Node Left Objective IInf Best_Integer Best_Bound ItCnt Gap
0 0 0.1082 36 0.1082 17
0+ 0 nan nan 652.1653 0.1082 nan 99.98%
0+ 0 nan nan 325.1431 0.1082 nan 99.97%
0 2 0.1082 36 325.1431 0.1630 17 99.95%
CPXPARAM_MIP_Cuts_Cliques 0
15
Node Left Objective IInf Best_Integer Best_Bound ItCnt Gap
0 0 66.3618 18 66.3618 16
0+ 0 nan nan 1506.3618 66.3618 nan 95.59%
0+ 0 nan nan 516.3066 66.3618 nan 87.15%
0+ 0 nan nan 458.8681 66.3618 nan 85.54%
0+ 0 nan nan 353.9674 66.3618 nan 81.25%
0 2 66.3618 18 353.9674 91.3236 16 74.20%
CPXPARAM_MIP_Cuts_Cliques 0
16
Node Left Objective IInf Best_Integer Best_Bound ItCnt Gap
0 0 310.5211 23 310.5211 15
0+ 0 nan nan 1055.6718 310.5211 nan 70.59%
0+ 0 nan nan 979.3037 310.5211 nan 68.29%
0+ 0 nan nan 908.4052 310.5211 nan 65.82%
0 2 310.5211 23 908.4052 316.0611 15 65.21%
CPXPARAM_MIP_Cuts_Cliques 0
17
Node Left Objective IInf Best_Integer Best_Bound ItCnt Gap
0 0 720.7294 4 720.7294 14
0+ 0 nan nan 1000.7294 720.7294 nan 27.98%
0+ 0 nan nan 799.5637 720.7294 nan 9.86%
0 2 720.7294 4 799.5637 720.7294 14 9.86%
CPXPARAM_MIP_Cuts_Cliques 0
18
Node Left Objective IInf Best_Integer Best_Bound ItCnt Gap
0 0 70.9860 28 70.9860 16
0+ 0 nan nan 890.2799 70.9860 nan 92.03%
0+ 0 nan nan 593.3707 70.9860 nan 88.04%
0 2 70.9860 28 593.3707 82.6456 16 86.07%
CPXPARAM_MIP_Cuts_Cliques 0
19
Node Left Objective IInf Best_Integer Best_Bound ItCnt Gap
0 0 97.2884 17 97.2884 16
0+ 0 nan nan 1287.2884 97.2884 nan 92.44%
0+ 0 nan nan 431.7817 97.2884 nan 77.47%
0+ 0 nan nan 426.2967 97.2884 nan 77.18%
0+ 0 nan nan 366.9267 97.2884 nan 73.49%
0 2 97.2884 17 366.9267 107.0290 16 70.83%
CPXPARAM_MIP_Cuts_Cliques 0
20
Node Left Objective IInf Best_Integer Best_Bound ItCnt Gap
0 0 531.7240 16 531.7240 15
0+ 0 nan nan 1173.5834 531.7240 nan 54.69%
0 2 531.7240 16 1173.5834 531.7240 15 54.69%
CPXPARAM_MIP_Cuts_Cliques 0
21
Node Left Objective IInf Best_Integer Best_Bound ItCnt Gap
0 0 531.7240 7 531.7240 13
0+ 0 nan nan 951.7240 531.7240 nan 44.13%
0+ 0 nan nan 694.3366 531.7240 nan 23.42%
0+ 0 nan nan 642.2145 531.7240 nan 17.20%
0 2 531.7240 7 642.2145 531.7240 13 17.20%
CPXPARAM_MIP_Cuts_Cliques 0
22
Node Left Objective IInf Best_Integer Best_Bound ItCnt Gap
0 0 227.5448 20 227.5448 13
0+ 0 nan nan 898.9050 227.5448 nan 74.69%
0 2 227.5448 20 898.9050 227.5448 13 74.69%
CPXPARAM_MIP_Cuts_Cliques 0
23
Node Left Objective IInf Best_Integer Best_Bound ItCnt Gap
0 0 242.6314 13 242.6314 13
0+ 0 nan nan 1152.6314 242.6314 nan 78.95%
0+ 0 nan nan 445.1166 242.6314 nan 45.49%
0+ 0 nan nan 429.3756 242.6314 nan 43.49%
0 2 242.6314 13 429.3756 242.6314 13 43.49%
CPXPARAM_MIP_Cuts_Cliques 0
24
Node Left Objective IInf Best_Integer Best_Bound ItCnt Gap
0 0 563.2442 17 563.2442 15
0+ 0 nan nan 1729.8213 563.2442 nan 67.44%
0 2 563.2442 17 1729.8213 563.2442 15 67.44%
CPXPARAM_MIP_Cuts_Cliques 0
25
Node Left Objective IInf Best_Integer Best_Bound ItCnt Gap
0 0 563.2442 8 563.2442 15
0+ 0 nan nan 1243.2442 563.2442 nan 54.70%
0+ 0 nan nan 755.8696 563.2442 nan 25.48%
0+ 0 nan nan 744.3831 563.2442 nan 24.33%
0+ 0 nan nan 713.6263 563.2442 nan 21.07%
0 2 563.2442 8 713.6263 563.2442 15 21.07%
CPXPARAM_MIP_Cuts_Cliques 0
26
Node Left Objective IInf Best_Integer Best_Bound ItCnt Gap
0 0 159.9467 27 159.9467 19
0+ 0 nan nan 943.3599 159.9467 nan 83.05%
0 2 159.9467 27 943.3599 182.0688 19 80.70%
CPXPARAM_MIP_Cuts_Cliques 0
27
Node Left Objective IInf Best_Integer Best_Bound ItCnt Gap
0 0 335.3220 14 335.3220 16
0+ 0 nan nan 1615.3220 335.3220 nan 79.24%
0+ 0 nan nan 566.8560 335.3220 nan 40.85%
0 2 335.3220 14 566.8560 335.3220 16 40.85%
CPXPARAM_MIP_Cuts_Cliques 0
28
Node Left Objective IInf Best_Integer Best_Bound ItCnt Gap
0 0 737.6756 14 737.6756 16
0+ 0 nan nan 1567.2256 737.6756 nan 52.93%
0+ 0 nan nan 1431.8793 737.6756 nan 48.48%
0+ 0 nan nan 1411.8440 737.6756 nan 47.75%
0 2 737.6756 14 1411.8440 737.6756 16 47.75%
CPXPARAM_MIP_Cuts_Cliques 0
29
Node Left Objective IInf Best_Integer Best_Bound ItCnt Gap
0 0 857.6756 7 857.6756 15
0+ 0 nan nan 1537.6756 857.6756 nan 44.22%
0+ 0 nan nan 974.1424 857.6756 nan 11.96%
0 2 857.6756 7 974.1424 857.6756 15 11.96%
CPXPARAM_MIP_Cuts_Cliques 0
30
Node Left Objective IInf Best_Integer Best_Bound ItCnt Gap
0 0 395.7677 23 395.7677 14
0+ 0 nan nan 1588.9378 395.7677 nan 75.09%
0+ 0 nan nan 1140.0933 395.7677 nan 65.29%
0 2 395.7677 23 1140.0933 395.7677 14 65.29%
CPXPARAM_MIP_Cuts_Cliques 0
31
Node Left Objective IInf Best_Integer Best_Bound ItCnt Gap
0 0 513.7633 11 513.7633 15
0+ 0 nan nan 1633.7633 513.7633 nan 68.55%
0+ 0 nan nan 689.9152 513.7633 nan 25.53%
0 2 513.7633 11 689.9152 513.7633 15 25.53%
CPXPARAM_MIP_Cuts_Cliques 0
32
Node Left Objective IInf Best_Integer Best_Bound ItCnt Gap
0 0 304.6647 23 304.6647 16
0+ 0 nan nan 989.3206 304.6647 nan 69.20%
0+ 0 nan nan 822.5024 304.6647 nan 62.96%
0 2 304.6647 23 822.5024 307.2992 16 62.64%
CPXPARAM_MIP_Cuts_Cliques 0
33
Node Left Objective IInf Best_Integer Best_Bound ItCnt Gap
0 0 417.0621 8 417.0621 13
0+ 0 nan nan 1017.0621 417.0621 nan 58.99%
0+ 0 nan nan 579.8864 417.0621 nan 28.08%
0 2 417.0621 8 579.8864 417.0621 13 28.08%
CPXPARAM_MIP_Cuts_Cliques 0
34
Node Left Objective IInf Best_Integer Best_Bound ItCnt Gap
0 0 18.4093 27 18.4093 16
0+ 0 nan nan 862.0889 18.4093 nan 97.86%
0+ 0 nan nan 686.8708 18.4093 nan 97.32%
0 2 18.4093 27 686.8708 24.2376 16 96.47%
CPXPARAM_MIP_Cuts_Cliques 0
35
Node Left Objective IInf Best_Integer Best_Bound ItCnt Gap
0 0 67.5371 18 67.5371 14
0+ 0 nan nan 1187.5371 67.5371 nan 94.31%
0+ 0 nan nan 355.3643 67.5371 nan 80.99%
0 2 67.5371 18 355.3643 76.3513 14 78.51%
CPXPARAM_MIP_Cuts_Cliques 0
36
Node Left Objective IInf Best_Integer Best_Bound ItCnt Gap
0 0 586.6437 17 586.6437 15
0+ 0 nan nan 2021.6073 586.6437 nan 70.98%
0+ 0 nan nan 1922.0017 586.6437 nan 69.48%
0+ 0 nan nan 1383.7877 586.6437 nan 57.61%
0 2 586.6437 17 1383.7877 586.6437 15 57.61%
CPXPARAM_MIP_Cuts_Cliques 0
37
Node Left Objective IInf Best_Integer Best_Bound ItCnt Gap
0 0 536.7930 7 536.7930 15
0+ 0 nan nan 1296.7930 536.7930 nan 58.61%
0+ 0 nan nan 705.4649 536.7930 nan 23.91%
0 2 536.7930 7 705.4649 536.7930 15 23.91%
CPXPARAM_MIP_Cuts_Cliques 0
38
Node Left Objective IInf Best_Integer Best_Bound ItCnt Gap
0 0 221.9075 20 221.9075 16
0+ 0 nan nan 1195.5496 221.9075 nan 81.44%
0+ 0 nan nan 1177.0458 221.9075 nan 81.15%
0+ 0 nan nan 1174.4427 221.9075 nan 81.11%
0 2 221.9075 20 1174.4427 221.9075 16 81.11%
CPXPARAM_MIP_Cuts_Cliques 0
39
Node Left Objective IInf Best_Integer Best_Bound ItCnt Gap
0 0 166.8114 18 166.8114 14
0+ 0 nan nan 1426.8114 166.8114 nan 88.31%
0+ 0 nan nan 635.9856 166.8114 nan 73.77%
0+ 0 nan nan 555.0552 166.8114 nan 69.95%
0 2 166.8114 18 555.0552 166.8114 14 69.95%
CPXPARAM_MIP_Cuts_Cliques 0
